objective value:                      1.3072807138134
x(0,3,0)                                            1 	(obj:0)
x(1,10,0)                                           1 	(obj:0)
x(2,8,0)                                            1 	(obj:0)
x(3,2,0)                                            1 	(obj:0)
x(4,15,1)                                           1 	(obj:0)
x(5,4,1)                                            1 	(obj:0)
x(8,1,0)                                            1 	(obj:0)
x(10,0,0)                                           1 	(obj:0)
x(15,5,1)                                           1 	(obj:0)
xc(0,9)                                             1 	(obj:0)
xc(1,0)                                             1 	(obj:0)
xc(2,15)                                            1 	(obj:0)
xc(3,10)                                            1 	(obj:0)
xc(5,2)                                             1 	(obj:0)
xc(8,0)                                             1 	(obj:0)
u(0,1)                                1.3072807138134 	(obj:0)
u(1,0)                                1.2262045824815 	(obj:0)
u(2,0)                                0.4915802248904 	(obj:0)
u(2,1)                                1.3072807138134 	(obj:0)
u(3,0)                                0.2622978886364 	(obj:0)
u(4,1)                              0.653640356906701 	(obj:0)
u(5,0)                                1.3072807138134 	(obj:0)
u(6,0)                                1.3072807138134 	(obj:0)
u(7,0)                                1.3072807138134 	(obj:0)
u(7,1)                                1.3072807138134 	(obj:0)
u(8,0)                                0.5748606496328 	(obj:0)
u(8,1)                                1.3072807138134 	(obj:0)
u(9,0)                                1.3072807138134 	(obj:0)
u(10,0)                               1.3072807138134 	(obj:0)
u(10,1)                               1.3072807138134 	(obj:0)
u(11,0)                               1.3072807138134 	(obj:0)
u(11,1)                               1.3072807138134 	(obj:0)
u(12,0)                               1.3072807138134 	(obj:0)
u(12,1)                               1.3072807138134 	(obj:0)
u(13,0)                               1.3072807138134 	(obj:0)
u(13,1)                               1.3072807138134 	(obj:0)
u(14,0)                               1.3072807138134 	(obj:0)
u(14,1)                               1.3072807138134 	(obj:0)
u(15,0)                               1.3072807138134 	(obj:0)
u(15,1)                               1.3072807138134 	(obj:0)
u(16,0)                               1.3072807138134 	(obj:0)
u(16,1)                               1.3072807138134 	(obj:0)
u(17,0)                               1.3072807138134 	(obj:0)
u(17,1)                               1.3072807138134 	(obj:0)
u(18,0)                               1.3072807138134 	(obj:0)
u(18,1)                               1.3072807138134 	(obj:0)
u(19,0)                               1.3072807138134 	(obj:0)
u(19,1)                               1.3072807138134 	(obj:0)
f(0,3,0)                                            1 	(obj:0)
f(0,3,1)                                            1 	(obj:0)
f(0,9,0)                                            1 	(obj:0)
f(0,9,1)                                            1 	(obj:0)
f(0,9,2)                                            1 	(obj:0)
f(0,9,3)                                            1 	(obj:0)
f(0,9,4)                                            1 	(obj:0)
f(1,0,1)                                            1 	(obj:0)
f(2,8,1)                                            1 	(obj:0)
f(2,8,2)                                            1 	(obj:0)
f(2,8,4)                                            1 	(obj:0)
f(3,2,1)                                            1 	(obj:0)
f(3,10,0)                                           1 	(obj:0)
f(3,10,3)                                           1 	(obj:0)
f(4,15,4)                                           1 	(obj:0)
f(5,2,4)                                            1 	(obj:0)
f(8,0,1)                                            1 	(obj:0)
f(8,0,2)                                            1 	(obj:0)
f(8,0,4)                                            1 	(obj:0)
f(10,0,0)                                           1 	(obj:0)
f(10,0,3)                                           1 	(obj:0)
f(15,5,4)                                           1 	(obj:0)
z_r(0,)                               1.3072807138134 	(obj:0)
z_r(1,)                               1.3072807138134 	(obj:0)
z                                     1.3072807138134 	(obj:1)
